# Variable cell relaxation of a crystal (energy minimization)
# https://docs.siesta-project.org/projects/siesta/en/latest/tutorials/basic/structure-optimization/
SystemLabel ws2_mono

#input structure
%include structure.fdf

#General aspects Calculation (Basis Set and functional)
PAO.BasisSize     DZP
PAO.EnergyShift   300 meV
XC.functional     GGA 
XC.authors        PBE 


ElectronicTemperature   25 meV
MaxSCFIterations        300
DM.MixingWeight         0.05
MeshCutoff              300 Ry

%block kgrid_Monkhorst_Pack
   15  0   0  0.0
   0   15  0  0.0
   0   0   1  0.0
%endblock kgrid_Monkhorst_Pack

SaveHS   true

# General Output
SaveHS true   #Save the Hamiltonian

# Geometry Optimization Options with variable cell
MD.TypeOfRun     CG  #Conjugate Gradient Method
MD.Steps         200 #Number of Steps
MD.MaxForceTol   0.02 ev/Ang
MD.VariableCell  false
VDW.vdWFormat    Grimme

# Geometry Optimization Output

WriteCoorXmol          true         #Save the final coordinates in .xyz format 

WriteMDXmol            true         #Writes the coordinates 
                                    #of all atoms at all steps
                                    #in a .ANI file
                                    #in xyz format
                                    
WriteMDhistory         true         #writes .MDE and .MD files
                                    # with output data from MD simulation
                                    # MDE contains: Temp, energy, volume, pressure 
                                    # (human readable)
                                    # MD contains coords vel lattice vectors
                                    # (unformatted; post-process with iomd.f)  
