LatticeConstant 1.0 Ang
%block LatticeVectors
 3.15300000  0.00000000 0.00000000
-1.57650000  2.73059800 0.00000000
 0.00000000  0.00000000 12.32000000
%endblock LatticeVectors

NumberOfAtoms 6
AtomicCoordinatesFormat Fractional
%block AtomicCoordinatesAndAtomicSpecies
  0.33333333  0.66666667  0.25000000 1 # 1: W 1
  0.66666667  0.33333333  0.37770000 2 # 2: S 1 (seperior)
  0.66666667  0.33333333  0.12230000 2 # 3: S 1 (inferior)
  0.66666667  0.33333333  0.75000000 1 # 4: W 2
  0.33333333  0.66666667  0.87770000 2 # 5: S 2 (superior)
  0.33333333  0.66666667  0.62230000 2 # 6: S 2 (inferior)
%endblock AtomicCoordinatesAndAtomicSpecies

NumberOfSpecies 2
%block ChemicalSpeciesLabel
 1 74 W
 2 16 S
%endblock ChemicalSpeciesLabel
