LatticeConstant 1.0 Ang
%block LatticeVectors
 11.23364565 0.00000000 0.00000000
 0.00000000 11.42449128 0.00000000
 0.00000000 0.00000000 13.90153650
%endblock LatticeVectors

NumberOfAtoms 4
AtomicCoordinatesFormat Ang
%block AtomicCoordinatesAndAtomicSpecies
  0.00000000  0.00000000  1.95076825 1 # 1: C
  0.00000000  0.00000000  5.85230475 1 # 2: C
 -0.00000001  1.42449128  1.95076825 1 # 3: C
  1.23364564  0.71224563  5.85230475 1 # 4: C
%endblock AtomicCoordinatesAndAtomicSpecies

NumberOfSpecies 1
%block ChemicalSpeciesLabel
 1 6 C
%endblock ChemicalSpeciesLabel
