# Simple fdf for electronic structure calculation
# https://docs.siesta-project.org/
SystemLabel graphene

#input structure
%include structure.fdf

#General aspects Calculation (Basis Set and functional)
PAO.BasisSize     DZP
PAO.EnergyShift   300 meV
XC.functional     GGA 
XC.authors        PBE 

ElectronicTemperature   25 meV
MaxSCFIterations        300
DM.MixingWeight         0.05
MeshCutoff              300 Ry

%block kgrid_Monkhorst_Pack
  19  0  0  0.0
   0 19  0  0.0
   0  0  1  0.0
%endblock kgrid_Monkhorst_Pack

SaveHS   true

# General Output
SaveHS true   #Save the Hamiltonian

# Geometry Optimization Options with variable cell
MD.TypeOfRun     CG  #Conjugate Gradient Method
MD.Steps         200 #Number of Steps
MD.MaxForceTol   0.02 ev/Ang
MD.VariableCell  true
MD.TargetPressure 0.0 GPa
VDW.vdWFormat    Grimme

%block GeometryConstraints
  stress 3 4 5 6
%endblock GeometryConstraints

# Geometry Optimization Output

WriteCoorXmol          true         #Save the final coordinates in .xyz format

WriteMDXmol            true         #Writes the coordinates
                                    #of all atoms at all steps
                                    #in a .ANI file
                                    #in xyz format

WriteMDhistory         true         #writes .MDE and .MD files
                                    # with output data from MD simulation
                                    # MDE contains: Temp, energy, volume, pressure
                                    # (human readable)
                                    # MD contains coords vel lattice vectors
                                    # (unformatted; post-process with iomd.f)

SaveHS true   #Save the Hamiltonian
                                    
