LatticeConstant 1.0 Ang
%block LatticeVectors
 2.13000000 -1.22975607 0.00000000
 2.13000000  1.22975607 0.00000000
 0.00000000  0.00000000 6.70000000
%endblock LatticeVectors

NumberOfAtoms 4
AtomicCoordinatesFormat Ang
%block AtomicCoordinatesAndAtomicSpecies
  0.00000000  0.00000000  0.25000000 1 # 1: C
  0.33333333  0.66666667  0.25000000 1 # 2: C
  0.00000000  0.00000000  0.75000000 1 # 3: C
  0.66666667  0.33333333  0.75000000 1 # 4: C
%endblock AtomicCoordinatesAndAtomicSpecies

NumberOfSpecies 1
%block ChemicalSpeciesLabel
 1 6 C
%endblock ChemicalSpeciesLabel
