LatticeConstant 1.0 Ang
%block LatticeVectors
 3.153000    0.000000    0.000000
-1.576500    2.730598    0.000000
 0.000000    0.000000   20.000000
%endblock LatticeVectors

NumberOfAtoms 3
AtomicCoordinatesFormat Ang
%block AtomicCoordinatesAndAtomicSpecies
  0.000028    1.820568    3.080000 1 # 1: W 1
  1.576487    0.910090    4.462056 2 # 2: S 1 (superior)
  1.576487    0.910090    1.697944 2 # 3: S 1 (inferior)
%endblock AtomicCoordinatesAndAtomicSpecies

NumberOfSpecies 2
%block ChemicalSpeciesLabel
 1 74 W
 2 16 S
%endblock ChemicalSpeciesLabel
