LatticeConstant 1.0 Ang
%block LatticeVectors
 3.16000000 0.00000000 0.00000000
-1.58000000 2.73664027 0.00000000
 0.00000000 0.00000000 20.00000000
%endblock LatticeVectors

NumberOfAtoms 3
AtomicCoordinatesFormat Fractional
%block AtomicCoordinatesAndAtomicSpecies
 0.33333333 0.66666667 0.50000000 1 # 1: Mo
 0.66666667 0.33333333 0.57850000 2 # 2: S (superior)
 0.66666667 0.33333333 0.42150000 2 # 2: S (inferior)
%endblock AtomicCoordinatesAndAtomicSpecies

NumberOfSpecies 2
%block ChemicalSpeciesLabel
 1 42 Mo
 2 16 S
%endblock ChemicalSpeciesLabel
