LatticeConstant 1.0 Ang
%block LatticeVectors
 3.31000000  0.00000000 0.00000000
-1.65500000  2.86657461 0.00000000
 0.00000000  0.00000000 11.89000000
%endblock LatticeVectors

NumberOfAtoms 6
AtomicCoordinatesFormat Fractional
%block AtomicCoordinatesAndAtomicSpecies
  0.33333333  0.66666667  0.25000000 1 # 1: Nb 1
  0.66666667  0.33333333  0.36800000 2 # 2: S 1 (seperior)
  0.66666667  0.33333333  0.13200000 2 # 3: S 1 (inferior)
  0.66666667  0.33333333  0.75000000 1 # 4: Nb 2
  0.33333333  0.66666667  0.86800000 2 # 5: S 2 (superior)
  0.33333333  0.66666667  0.63200000 2 # 6: S 2 (inferior)
%endblock AtomicCoordinatesAndAtomicSpecies

NumberOfSpecies 2
%block ChemicalSpeciesLabel
 1 41 Nb
 2 16 S
%endblock ChemicalSpeciesLabel
