LatticeConstant 1.0 Ang
%block LatticeVectors
 3.31000000 0.00000000 0.00000000
-1.65500000 2.86657461 0.00000000
 0.00000000 0.00000000 20.00000000
%endblock LatticeVectors

NumberOfAtoms 3
AtomicCoordinatesFormat Fractional
%block AtomicCoordinatesAndAtomicSpecies
 0.33333333 0.66666667 0.50000000 1 # 1: Nb
 0.66666667 0.33333333 0.57010000 2 # 2: S (superior)
 0.66666667 0.33333333 0.42985000 2 # 2: S (inferior)
%endblock AtomicCoordinatesAndAtomicSpecies

NumberOfSpecies 2
%block ChemicalSpeciesLabel
 1 41 Nb
 2 16 S
%endblock ChemicalSpeciesLabel
